set V:= 0 1 2 3 4 5 6 7 8 9 10 11 12;
set E:=
0 1
1 0
0 2
2 0
0 4
4 0
0 6
6 0
1 2
2 1
2 3
3 2
2 7
7 2
3 4
4 3
3 5
5 3
3 9
9 3
4 5
5 4
5 8
8 5
6 10
10 6
6 11
11 6
6 12
12 6
7 10
10 7
7 11
11 7
7 12
12 7
8 10
10 8
8 11
11 8
8 12
12 8
9 10
10 9
9 11
11 9
9 12
12 9
;
set S:=10;
set T:=11;
set NoST:= 0 1 2 3 4 5 6 7 8 9 12;
param g:=
0 1 74.124533
1 0 74.124533
0 2 60.791248
2 0 60.791248
0 4 60.791248
4 0 60.791248
0 6 97.512619
6 0 97.512619
1 2 96.006413
2 1 96.006413
2 3 57.383001
3 2 57.383001
2 7 94.053108
7 2 94.053108
3 4 82.05403
4 3 82.05403
3 5 71.597671
5 3 71.597671
3 9 80.979824
9 3 80.979824
4 5 64.052971
5 4 64.052971
5 8 89.300105
8 5 89.300105
6 10 10000.0
10 6 10000.0
6 11 10000.0
11 6 10000.0
6 12 10000.0
12 6 10000.0
7 10 10000.0
10 7 10000.0
7 11 10000.0
11 7 10000.0
7 12 10000.0
12 7 10000.0
8 10 10000.0
10 8 10000.0
8 11 10000.0
11 8 10000.0
8 12 10000.0
12 8 10000.0
9 10 10000.0
10 9 10000.0
9 11 10000.0
11 9 10000.0
9 12 10000.0
12 9 10000.0
;
/*集合数量*/
set SSet:=2;
set VSet[2]:=
4 5
5 4
3 4
4 3
3 5
5 4
;
param ValueSet:=3;

end;
